p cnf 13 32
1 4 0
-2 4 0
-1 2 -4 0
4 5 0
-3 5 0
-4 3 -5 0
-1 -8 0
2 -8 0
1 -2 8 0
-8 -7 0
3 -7 0
8 -3 7 0
5 -6 0
-7 -6 0
-5 7 6 0
1 9 0
-2 9 0
-1 2 -9 0
9 10 0
-3 10 0
-9 3 -10 0
-1 -13 0
2 -13 0
1 -2 13 0
-13 -12 0
3 -12 0
13 -3 12 0
10 -11 0
-12 -11 0
-10 12 11 0
6 11 0
-6 -11 0